nbGenes = 10;
preference = [[0 75 71 2 70 92 49 47 2 0 ]
[25 0 39 23 78 80 95 84 16 56 ]
[29 61 0 65 12 12 87 22 26 71 ]
[98 77 35 0 80 64 28 86 1 76 ]
[30 22 88 20 0 97 18 18 18 35 ]
[8 20 88 36 3 0 94 58 4 34 ]
[51 5 13 72 82 6 0 14 21 18 ]
[53 16 78 14 82 42 86 0 61 86 ]
[98 84 74 99 82 96 79 39 0 4 ]
[100 44 29 24 65 66 82 14 96 0 ]
];
